8
0, 461, 282, 607, 534, 440, 702, 644
461, 0, 383, 530, 242, 286, 358, 185
282, 383, 0, 325, 319, 196, 475, 557
607, 530, 325, 0, 309, 249, 356, 635
534, 242, 319, 309, 0, 127, 167, 325
440, 286, 196, 249, 127, 0, 279, 420
702, 358, 475, 356, 167, 279, 0, 357
644, 185, 557, 635, 325, 420, 357, 0
